c Tree-structured CNF
c Generated CNF instance
p cnf 15 38
-1 3 0
1 -3 0
3 4 0
-1 4 0
1 -4 0
4 5 0
-2 5 0
2 -5 0
5 6 0
-2 6 0
2 -6 0
6 7 0
-3 7 0
3 -7 0
7 8 0
-3 8 0
3 -8 0
8 9 0
-4 9 0
4 -9 0
9 10 0
-4 10 0
4 -10 0
10 11 0
-5 11 0
5 -11 0
11 12 0
-5 12 0
5 -12 0
12 13 0
-6 13 0
6 -13 0
13 14 0
-6 14 0
6 -14 0
14 15 0
-7 15 0
7 -15 0
